c Result of efficient AIG-to-CNF conversion using package CNF
p cnf 259 839
2 -3 -7 0
2 -3 -6 -64 0
-2 3 0
-2 7 64 0
-2 6 7 0
3 -197 -198 -4 -5 0
-3 5 0
-3 197 0
-3 4 0
-3 198 0
4 -227 -228 -229 -230 0
-4 230 0
-4 227 0
-4 229 0
-4 228 0
5 -195 -196 0
-5 195 0
-5 196 0
6 -199 -231 0
-6 199 0
-6 231 0
7 6 -8 0
7 -8 59 0
7 -8 61 0
-7 8 0
-7 -6 -59 -61 0
8 -9 28 -47 0
8 -9 -28 -29 0
-8 9 0
-8 -28 29 0
-8 28 47 0
9 -199 -231 -10 -16 0
-9 16 0
-9 199 0
-9 10 0
-9 231 0
10 -11 -13 -14 -15 0
-10 15 0
-10 11 0
-10 14 0
-10 13 0
11 -219 -220 -251 -12 0
-11 12 0
-11 219 0
-11 251 0
-11 220 0
12 -221 -252 -253 0
-12 221 0
-12 252 0
-12 253 0
13 -216 -248 0
-13 216 0
-13 248 0
14 -217 -218 -249 -250 0
-14 250 0
-14 217 0
-14 249 0
-14 218 0
15 -215 -247 0
-15 215 0
-15 247 0
16 -17 -23 0
-16 17 0
-16 23 0
17 -18 -20 -21 -22 0
-17 22 0
-17 18 0
-17 21 0
-17 20 0
18 -205 -207 -239 -19 0
-18 19 0
-18 205 0
-18 239 0
-18 207 0
19 -206 -237 -238 0
-19 206 0
-19 237 0
-19 238 0
20 -202 -203 -234 0
-20 202 0
-20 203 0
-20 234 0
21 -204 -235 -236 0
-21 204 0
-21 235 0
-21 236 0
22 -200 -201 -232 -233 0
-22 233 0
-22 200 0
-22 232 0
-22 201 0
23 -208 -24 -25 -26 0
-23 26 0
-23 208 0
-23 25 0
-23 24 0
24 -211 -214 -240 0
-24 211 0
-24 214 0
-24 240 0
25 -209 -210 -241 -242 0
-25 242 0
-25 209 0
-25 241 0
-25 210 0
26 -212 -213 -243 -27 0
-26 27 0
-26 212 0
-26 243 0
-26 213 0
27 -244 -245 -246 0
-27 244 0
-27 245 0
-27 246 0
28 -222 -254 0
-28 222 0
-28 254 0
-29 -30 31 0
-29 30 44 0
-29 30 -41 0
29 -30 -31 0
29 30 41 -44 0
30 -223 -255 0
-30 223 0
-30 255 0
-31 -32 33 0
-31 32 38 0
31 -32 -33 0
31 32 -38 0
32 -224 -256 0
-32 224 0
-32 256 0
-33 34 35 0
-33 -34 37 0
33 -34 -37 0
33 34 -35 0
34 -225 -257 0
-34 225 0
-34 257 0
-35 200 36 0
-35 199 -36 0
35 -200 36 0
35 -199 -36 0
36 -226 -258 0
-36 226 0
-36 258 0
-37 198 36 0
-37 197 -36 0
37 -198 36 0
37 -197 -36 0
38 34 -40 0
38 -34 -39 0
-38 -34 39 0
-38 34 40 0
-39 202 36 0
-39 201 -36 0
39 -202 36 0
39 -201 -36 0
-40 204 36 0
-40 203 -36 0
40 -204 36 0
40 -203 -36 0
41 -32 34 43 0
41 -32 -34 42 0
-41 32 0
-41 -34 -42 0
-41 34 -43 0
-42 206 36 0
-42 205 -36 0
42 -206 36 0
42 -205 -36 0
-43 208 36 0
-43 207 -36 0
43 -208 36 0
43 -207 -36 0
-44 32 34 46 0
-44 32 -34 45 0
44 -32 0
44 -34 -45 0
44 34 -46 0
-45 210 36 0
-45 209 -36 0
45 -210 36 0
45 -209 -36 0
-46 212 36 0
-46 211 -36 0
46 -212 36 0
46 -211 -36 0
47 30 -54 0
47 -30 48 -51 0
-47 -30 -48 0
-47 30 54 0
-47 -30 51 0
48 -32 34 50 0
48 -32 -34 49 0
-48 32 0
-48 -34 -49 0
-48 34 -50 0
-49 214 36 0
-49 213 -36 0
49 -214 36 0
49 -213 -36 0
-50 216 36 0
-50 215 -36 0
50 -216 36 0
50 -215 -36 0
-51 32 34 53 0
-51 32 -34 52 0
51 -32 0
51 -34 -52 0
51 34 -53 0
-52 218 36 0
-52 217 -36 0
52 -218 36 0
52 -217 -36 0
-53 220 36 0
-53 219 -36 0
53 -220 36 0
53 -219 -36 0
54 -32 -55 0
54 32 -58 0
-54 32 58 0
-54 -32 55 0
55 34 -57 0
55 -34 -56 0
-55 -34 56 0
-55 34 57 0
-56 222 36 0
-56 221 -36 0
56 -222 36 0
56 -221 -36 0
-57 224 36 0
-57 223 -36 0
57 -224 36 0
57 -223 -36 0
58 -225 -226 -257 0
-58 225 0
-58 226 0
-58 257 0
59 -15 -17 -23 -60 0
-59 60 0
-59 15 0
-59 23 0
-59 17 0
60 -11 -13 -14 -28 0
-60 28 0
-60 11 0
-60 14 0
-60 13 0
61 -30 -32 -62 0
-61 30 0
-61 32 0
-61 62 0
62 -34 -63 0
62 -195 34 -36 0
-62 34 36 0
-62 -34 63 0
-62 195 34 0
-63 196 36 0
-63 197 -36 0
63 -197 -36 0
63 -196 36 0
-64 65 -138 165 0
-64 65 139 165 0
64 -165 0
64 -65 0
64 138 -139 0
-65 67 95 0
-65 -66 95 0
-65 68 95 0
65 -95 0
65 66 -67 -68 0
66 -30 -32 -58 -59 0
-66 59 0
-66 30 0
-66 58 0
-66 32 0
67 -10 -16 0
-67 10 0
-67 16 0
-68 -28 69 0
-68 28 91 0
-68 28 -84 0
68 -28 -69 0
68 28 84 -91 0
-69 -30 70 0
-69 30 81 0
-69 30 -78 0
69 -30 -70 0
69 30 78 -81 0
-70 -32 71 0
-70 32 75 0
70 -32 -71 0
70 32 -75 0
-71 34 74 0
-71 -34 72 73 0
71 -34 -72 0
71 34 -74 0
71 -34 -73 0
72 -224 36 0
-72 224 0
-72 -36 0
73 -225 -36 0
-73 225 0
-73 36 0
-74 222 36 0
-74 223 -36 0
74 -223 -36 0
74 -222 36 0
75 34 -77 0
75 -34 -76 0
-75 -34 76 0
-75 34 77 0
-76 220 36 0
-76 221 -36 0
76 -221 -36 0
76 -220 36 0
-77 218 36 0
-77 219 -36 0
77 -219 -36 0
77 -218 36 0
78 -32 34 80 0
78 -32 -34 79 0
-78 32 0
-78 -34 -79 0
-78 34 -80 0
-79 216 36 0
-79 217 -36 0
79 -217 -36 0
79 -216 36 0
-80 214 36 0
-80 215 -36 0
80 -215 -36 0
80 -214 36 0
-81 32 34 83 0
-81 32 -34 82 0
81 -32 0
81 -34 -82 0
81 34 -83 0
-82 212 36 0
-82 213 -36 0
82 -213 -36 0
82 -212 36 0
-83 210 36 0
-83 211 -36 0
83 -211 -36 0
83 -210 36 0
84 -30 32 88 0
84 -30 -32 85 0
-84 30 0
-84 -32 -85 0
-84 32 -88 0
85 34 -87 0
85 -34 -86 0
-85 -34 86 0
-85 34 87 0
-86 208 36 0
-86 209 -36 0
86 -209 -36 0
86 -208 36 0
-87 206 36 0
-87 207 -36 0
87 -207 -36 0
87 -206 36 0
88 34 -90 0
88 -34 -89 0
-88 -34 89 0
-88 34 90 0
-89 204 36 0
-89 205 -36 0
89 -205 -36 0
89 -204 36 0
-90 202 36 0
-90 203 -36 0
90 -203 -36 0
90 -202 36 0
-91 30 -32 92 0
-91 30 32 62 0
91 -30 0
91 -32 -92 0
91 32 -62 0
92 34 -94 0
92 -34 -93 0
-92 -34 93 0
-92 34 94 0
-93 200 36 0
-93 201 -36 0
93 -201 -36 0
93 -200 36 0
-94 198 36 0
-94 199 -36 0
94 -199 -36 0
94 -198 36 0
95 28 -67 -96 0
95 -28 -67 -115 0
-95 67 0
-95 -28 115 0
-95 28 96 0
-96 30 97 111 0
-96 -30 97 104 0
96 -97 0
96 30 -111 0
96 -30 -104 0
97 30 -100 0
97 -30 98 -99 0
-97 -30 -98 0
-97 30 100 0
-97 -30 99 0
98 -32 34 49 0
98 -32 -34 46 0
-98 32 0
-98 -34 -46 0
-98 34 -49 0
-99 32 34 52 0
-99 32 -34 50 0
99 -32 0
99 -34 -50 0
99 34 -52 0
100 -32 -101 0
100 32 -102 0
-100 32 102 0
-100 -32 101 0
101 34 -56 0
101 -34 -53 0
-101 -34 53 0
-101 34 56 0
102 34 -103 0
102 -34 -57 0
-102 -34 57 0
-102 34 103 0
-103 226 36 0
-103 225 -36 0
103 -226 36 0
103 -225 -36 0
104 -32 -105 0
104 32 109 -110 0
-104 32 110 0
-104 -32 105 0
-104 32 -109 0
105 34 -108 0
105 -34 -106 0
105 34 -107 0
-105 -34 106 0
-105 34 107 108 0
-106 213 36 0
-106 212 -36 0
106 -213 36 0
106 -212 -36 0
107 -215 36 0
-107 215 0
-107 -36 0
108 -214 -36 0
-108 214 0
-108 36 0
109 216 -34 -36 0
109 217 -34 36 0
-109 34 0
-109 -217 36 0
-109 -216 -36 0
-110 218 34 -36 0
-110 219 34 36 0
110 -34 0
110 -219 36 0
110 -218 -36 0
111 32 -114 0
111 -32 112 -113 0
-111 -32 -112 0
-111 32 114 0
-111 -32 113 0
112 220 -34 -36 0
112 221 -34 36 0
-112 34 0
-112 -221 36 0
-112 -220 -36 0
-113 222 34 -36 0
-113 223 34 36 0
113 -34 0
113 -223 36 0
113 -222 -36 0
114 34 -36 0
114 -225 -34 36 0
114 -224 -36 0
-114 225 36 0
-114 34 36 0
-114 224 -34 -36 0
-115 32 116 0
-115 -32 127 134 0
115 -32 -127 0
115 32 -116 0
115 -32 -134 0
-116 -30 117 0
-116 30 122 123 0
116 30 -123 0
116 -30 -117 0
116 30 -122 0
-117 -34 35 118 0
-117 34 39 118 0
117 -118 0
117 -34 -35 0
117 34 -39 0
118 34 -121 0
118 -34 -119 0
118 34 -120 0
-118 -34 119 0
-118 34 120 121 0
-119 201 36 0
-119 200 -36 0
119 -201 36 0
119 -200 -36 0
120 -203 36 0
-120 203 0
-120 -36 0
121 -202 -36 0
-121 202 0
-121 36 0
122 34 -45 0
122 -34 -43 0
-122 -34 43 0
-122 34 45 0
123 34 -126 0
123 -34 -124 0
123 34 -125 0
-123 -34 124 0
-123 34 125 126 0
-124 209 36 0
-124 208 -36 0
124 -209 36 0
124 -208 -36 0
125 -211 36 0
-125 211 0
-125 -36 0
126 -210 -36 0
-126 210 0
-126 36 0
127 -30 -133 0
127 -30 128 -129 0
127 -30 -128 129 0
-127 30 0
-127 128 129 133 0
-127 -128 -129 133 0
128 -195 -34 36 0
128 -196 -34 -36 0
-128 34 0
-128 196 -36 0
-128 195 36 0
129 -34 -130 0
129 34 -131 0
129 -34 -132 0
-129 34 131 0
-129 -34 130 132 0
130 -196 -36 0
-130 196 0
-130 36 0
-131 199 36 0
-131 198 -36 0
131 -199 36 0
131 -198 -36 0
132 -197 36 0
-132 197 0
-132 -36 0
133 34 -37 0
133 -196 -34 36 0
-133 196 -34 0
-133 34 37 0
-133 -34 -36 0
134 30 -135 0
134 30 136 -137 0
-134 -30 0
-134 135 137 0
-134 135 -136 0
135 34 -42 0
135 -34 -40 0
-135 -34 40 0
-135 34 42 0
136 204 -34 -36 0
136 205 -34 36 0
-136 34 0
-136 -205 36 0
-136 -204 -36 0
-137 206 34 -36 0
-137 207 34 36 0
137 -34 0
137 -207 36 0
137 -206 -36 0
138 -30 -32 -59 -114 0
-138 114 0
-138 30 0
-138 59 0
-138 32 0
139 28 -67 -154 0
139 -28 -67 -140 0
-139 67 0
-139 -28 140 0
-139 28 154 0
-140 -30 141 0
-140 30 151 0
-140 30 -148 0
140 -30 -141 0
140 30 148 -151 0
-141 -32 142 0
-141 32 145 0
141 -32 -142 0
141 32 -145 0
-142 34 143 0
-142 -34 144 0
142 -34 -144 0
142 34 -143 0
-143 221 36 0
-143 222 -36 0
143 -222 -36 0
143 -221 36 0
-144 223 36 0
-144 224 -36 0
144 -224 -36 0
144 -223 36 0
145 34 -147 0
145 -34 -146 0
-145 -34 146 0
-145 34 147 0
-146 219 36 0
-146 220 -36 0
146 -220 -36 0
146 -219 36 0
-147 217 36 0
-147 218 -36 0
147 -218 -36 0
147 -217 36 0
148 -32 34 150 0
148 -32 -34 149 0
-148 32 0
-148 -34 -149 0
-148 34 -150 0
-149 215 36 0
-149 216 -36 0
149 -216 -36 0
149 -215 36 0
-150 213 36 0
-150 214 -36 0
150 -214 -36 0
150 -213 36 0
-151 32 34 153 0
-151 32 -34 152 0
151 -32 0
151 -34 -152 0
151 34 -153 0
-152 211 36 0
-152 212 -36 0
152 -212 -36 0
152 -211 36 0
-153 209 36 0
-153 210 -36 0
153 -210 -36 0
153 -209 36 0
154 30 -161 0
154 -30 155 -158 0
-154 -30 -155 0
-154 30 161 0
-154 -30 158 0
155 -32 34 157 0
155 -32 -34 156 0
-155 32 0
-155 -34 -156 0
-155 34 -157 0
-156 207 36 0
-156 208 -36 0
156 -208 -36 0
156 -207 36 0
-157 205 36 0
-157 206 -36 0
157 -206 -36 0
157 -205 36 0
-158 32 34 160 0
-158 32 -34 159 0
158 -32 0
158 -34 -159 0
158 34 -160 0
-159 203 36 0
-159 204 -36 0
159 -204 -36 0
159 -203 36 0
-160 201 36 0
-160 202 -36 0
160 -202 -36 0
160 -201 36 0
161 32 -128 0
161 -32 -162 0
-161 -32 162 0
-161 32 128 0
162 34 -164 0
162 -34 -163 0
-162 -34 163 0
-162 34 164 0
-163 199 36 0
-163 200 -36 0
163 -200 -36 0
163 -199 36 0
-164 197 36 0
-164 198 -36 0
164 -198 -36 0
164 -197 36 0
-165 166 182 0
-165 166 -181 0
-165 67 166 0
165 -166 0
165 -67 181 -182 0
166 59 -168 0
166 30 -168 0
166 167 -168 0
-166 168 0
-166 -30 -59 -167 0
167 -32 -34 -36 0
-167 32 0
-167 34 0
-167 36 0
168 28 -67 -174 0
168 -28 -67 -169 0
-168 67 0
-168 -28 169 0
-168 28 174 0
-169 -30 170 0
-169 30 173 0
-169 30 -172 0
169 -30 -170 0
169 30 172 -173 0
-170 32 171 0
-170 -32 34 144 0
170 -32 -34 0
170 32 -171 0
170 -32 -144 0
171 34 -146 0
171 -34 -143 0
-171 -34 143 0
-171 34 146 0
172 -32 34 149 0
172 -32 -34 147 0
-172 32 0
-172 -34 -147 0
-172 34 -149 0
-173 32 34 152 0
-173 32 -34 150 0
173 -32 0
173 -34 -150 0
173 34 -152 0
174 -30 -175 0
174 30 178 -179 0
-174 30 179 0
-174 -30 175 0
-174 30 -178 0
175 -32 -176 0
175 32 -177 0
-175 32 177 0
-175 -32 176 0
176 34 -156 0
176 -34 -153 0
-176 -34 153 0
-176 34 156 0
177 34 -159 0
177 -34 -157 0
-177 -34 157 0
-177 34 159 0
178 -32 34 163 0
178 -32 -34 160 0
-178 32 0
-178 -34 -160 0
-178 34 -163 0
-179 32 -34 164 0
-179 32 34 180 0
179 -32 0
179 -34 -164 0
179 34 -180 0
-180 195 36 0
-180 196 -36 0
180 -196 -36 0
180 -195 36 0
181 -30 -32 -59 -102 0
-181 102 0
-181 30 0
-181 59 0
-181 32 0
-182 28 189 0
-182 -28 183 186 0
182 -28 -183 0
182 28 -189 0
182 -28 -186 0
183 -30 32 -185 0
183 -30 -32 -184 0
-183 30 0
-183 -32 184 0
-183 32 185 0
-184 -34 74 0
-184 34 76 0
184 34 -76 0
184 -34 -74 0
185 34 -79 0
185 -34 -77 0
-185 -34 77 0
-185 34 79 0
186 30 32 -188 0
186 30 -32 -187 0
-186 -30 0
-186 -32 187 0
-186 32 188 0
187 34 -82 0
187 -34 -80 0
-187 -34 80 0
-187 34 82 0
188 34 -86 0
188 -34 -83 0
-188 -34 83 0
-188 34 86 0
189 30 -192 0
189 -30 190 -191 0
-189 -30 -190 0
-189 30 192 0
-189 -30 191 0
190 -32 34 89 0
190 -32 -34 87 0
-190 32 0
-190 -34 -87 0
-190 34 -89 0
-191 32 34 93 0
-191 32 -34 90 0
191 -32 0
191 -34 -90 0
191 34 -93 0
192 -32 -194 0
192 32 -34 -193 0
-192 -32 194 0
-192 32 193 0
-192 32 34 0
193 -195 -36 0
-193 195 0
-193 36 0
194 -34 -94 0
194 34 -63 0
-194 34 63 0
-194 -34 94 0
-259 0
2 0

